
<<< setup


<<< generate

Version identifier: 22.1.1.0 | 2022-11-28 | 9160aff4d
CPXPARAM_TimeLimit                               1800
Found incumbent of value 0.000000 after 0.00 sec. (2.24 ticks)
Tried aggregator 2 times.
MIP Presolve eliminated 200 rows and 0 columns.
Aggregator did 40000 substitutions.
Reduced MIP has 401 rows, 40000 columns, and 120000 nonzeros.
Reduced MIP has 40000 binaries, 0 generals, 0 SOSs, and 0 indicators.
Presolve time = 0.15 sec. (211.77 ticks)
Tried aggregator 1 time.
Detecting symmetries...
Reduced MIP has 401 rows, 40000 columns, and 120000 nonzeros.
Reduced MIP has 40000 binaries, 0 generals, 0 SOSs, and 0 indicators.
Presolve time = 0.08 sec. (116.90 ticks)
Probing time = 0.02 sec. (13.05 ticks)
Clique table members: 400.
MIP emphasis: balance optimality and feasibility.
MIP search method: dynamic search.
Parallel mode: deterministic, using up to 8 threads.
Root relaxation solution time = 0.07 sec. (165.16 ticks)

        Nodes                                         Cuts/
   Node  Left     Objective  IInf  Best Integer    Best Bound    ItCnt     Gap

*     0+    0                            0.0000  2115000.0000              --- 
*     0+    0                         9836.0000  2115000.0000              --- 
      0     0     9909.2857     1     9836.0000     9909.2857      457    0.75%
*     0+    0                         9905.0000     9909.2857             0.04%
      0     0     9909.2857     4     9905.0000     Covers: 2      575    0.04%
      0     0     9909.2857    14     9905.0000       Cuts: 2      585    0.04%
      0     2     9909.2857     1     9905.0000     9909.2857      585    0.04%
Elapsed time = 0.99 sec. (1900.51 ticks, tree = 0.02 MB, solutions = 3)
*     6+    2                         9906.0000     9909.2857             0.03%
     15     5        cutoff           9906.0000     9909.2857      669    0.03%
     34     4     9909.0500     1     9906.0000     9909.0500      830    0.03%
     69     6     9908.8077     3     9906.0000     9908.8571      893    0.03%

Cover cuts applied:  11
Zero-half cuts applied:  1

Root node processing (before b&c):
  Real time             =    0.97 sec. (1885.43 ticks)
Parallel b&c, 8 threads:
  Real time             =    0.45 sec. (997.51 ticks)
  Sync time (average)   =    0.29 sec.
  Wait time (average)   =    0.00 sec.
                          ------------
Total (root+branch&cut) =    1.42 sec. (2882.94 ticks)

<<< solve


OBJECTIVE: 9906

<<< post process


<<< done

